c Random generated cnf formula, satisfiable: false
p cnf 10 50
7 3 -6 0
1 7 3 0
5 -6 9 0
-5 -7 -2 0
-3 -6 -9 0
7 -8 6 0
5 9 -7 0
4 -3 -2 0
1 5 -9 0
6 8 -2 0
5 -1 9 0
-10 -7 -1 0
8 7 9 0
8 3 2 0
-3 8 -7 0
-10 -6 -8 0
-3 7 -9 0
4 1 -2 0
6 -4 -7 0
3 -8 -10 0
8 -6 -5 0
8 -2 -4 0
10 -6 5 0
-3 1 -5 0
7 6 3 0
4 -8 9 0
-10 7 -8 0
-2 9 10 0
5 -10 -6 0
10 2 3 0
-4 10 -7 0
-5 6 7 0
3 -9 8 0
7 1 8 0
-7 -5 9 0
-3 10 9 0
4 -10 7 0
2 -1 3 0
-7 2 9 0
8 3 -4 0
2 -4 1 0
8 -10 9 0
10 -2 -4 0
-4 3 5 0
7 -6 -9 0
2 -3 -6 0
-2 -4 -5 0
-2 -10 5 0
7 -3 -5 0
-7 4 10 0
